GLPSOL--GLPK LP/MIP Solver 5.0
Parameter(s) specified in the command line:
 --lp ../modeles/4_444.lp --log 4_444.log
Reading problem data from '../modeles/4_444.lp'...
1793 rows, 3560 columns, 12444 non-zeros
1776 integer variables, all of which are binary
5363 lines were read
GLPK Integer Optimizer 5.0
1793 rows, 3560 columns, 12444 non-zeros
1776 integer variables, all of which are binary
Preprocessing...
1752 constraint coefficient(s) were reduced
1793 rows, 3556 columns, 12440 non-zeros
1776 integer variables, all of which are binary
Scaling...
 A: min|aij| =  8.116e-05  max|aij| =  4.000e+00  ratio =  4.928e+04
GM: min|aij| =  6.712e-02  max|aij| =  1.490e+01  ratio =  2.220e+02
EQ: min|aij| =  4.505e-03  max|aij| =  1.000e+00  ratio =  2.220e+02
2N: min|aij| =  3.906e-03  max|aij| =  1.705e+00  ratio =  4.366e+02
Constructing initial basis...
Size of triangular part is 1793
Solving LP relaxation...
GLPK Simplex Optimizer 5.0
1793 rows, 3556 columns, 12440 non-zeros
      0: obj =   8.000000000e+00 inf =   2.220e+02 (9)
    123: obj =   4.489412863e-01 inf =   0.000e+00 (0)
*   349: obj =  -1.999918838e+00 inf =   7.667e-15 (0)
OPTIMAL LP SOLUTION FOUND
Integer optimization begins...
Long-step dual simplex will be used
+   349: mip =     not found yet >=              -inf        (1; 0)
+  1283: >>>>>  -1.999918838e+00 >=  -1.999918838e+00 < 0.1% (933; 0)
+  1283: mip =  -1.999918838e+00 >=     tree is empty   0.0% (0; 1865)
INTEGER OPTIMAL SOLUTION FOUND
Time used:   2.4 secs
Memory used: 5.3 Mb (5580222 bytes)
